26 4
60 24 85 54 49 72 45 50 67 29 26 44 52 42 78 84 66 66 28 69 35 87 18 47 34 49
39 7 73 49 65 81 20 62 87 35 26 51 55 37 88 60 66 44 43 64 46 91 35 44 38 48
57 26 92 56 56 61 30 60 70 24 19 61 44 44 76 58 65 51 39 48 45 115 34 52 57 62
62 22 85 49 57 76 34 60 78 22 26 60 67 27 87 66 81 65 18 53 58 115 12 44 58 38
